c This is QMaxSAT 2017 based on 14.07
c This is Glucose 3.0
c This is MiniSat 2.2.0
c WARNING: for repeatability, setting FPU to use double precision
c card = mrwto, comp = 0, pmodel = 0, narr = 2, mct = 16, verb = 0
cr firstCPXsol 0 0 0
c top = 214379
c |  Number of variables:    3662                                             |
c |  Number of clauses:      307864                                           |
c |  Weight of hard clauses: 214379                                           |
c |  Number of soft clauses: 480                                              |
c |  Number of unit soft clauses: 480                                         |
c |  Maximum Cardinality (by unit): 428756       (428756      )               |
c last restart ## conflicts  :  4 430 
o 7717 | cpuTime 0.03771 s
c Sum of weights = 214378
c A number of soft clauses remained = 240
c MRWTO encoding for Pseudo-Boolean Constraints
c sizeMax=7717
c No.0 Divisor=10	generated by pow1
c No.1 Divisor=10	generated by pow1
c No.2 Divisor=10	generated by pow1
c No.3 Divisor=10	generated by pow1
c p0= 10	p1= 10	p2= 10	p3= 10	
c number of digits = 5
c linkingVar[0].size = 10, linkingVar[1].size = 10, linkingVar[2].size = 10, linkingVar[3].size = 8, linkingVar[4].size = 1, 
c Pseudo-Boolean Constraints: 6457 variables and 59049 clauses
c Sum of weights = 214378
c A number of soft clauses remained = 240
c MRWTO encoding for Pseudo-Boolean Constraints
c sizeMax=7717
c No.0 Divisor=10	generated by pow1
c No.1 Divisor=10	generated by pow1
c No.2 Divisor=10	generated by pow1
c No.3 Divisor=10	generated by pow1
c p0= 10	p1= 10	p2= 10	p3= 10	
c number of digits = 5
c linkingVar[0].size = 10, linkingVar[1].size = 10, linkingVar[2].size = 10, linkingVar[3].size = 8, linkingVar[4].size = 1, 
c Pseudo-Boolean Constraints: 6457 variables and 59049 clauses
c last restart ## conflicts  :  349 903 
o 6681 | cpuTime 0.222106 s
c last restart ## conflicts  :  101 2085 
o 6563 | cpuTime 0.231622 s
c last restart ## conflicts  :  115 1258 
o 6085 | cpuTime 0.557528 s
c last restart ## conflicts  :  40 2179 
o 6081 | cpuTime 0.563503 s
c last restart ## conflicts  :  182 1035 
o 6034 | cpuTime 0.880225 s
c last restart ## conflicts  :  455 848 
o 5873 | cpuTime 1.14037 s
c last restart ## conflicts  :  131 1147 
o 5402 | cpuTime 1.44657 s
c last restart ## conflicts  :  298 758 
o 5399 | cpuTime 2.09907 s
c last restart ## conflicts  :  662 614 
o 5369 | cpuTime 2.82434 s
c last restart ## conflicts  :  201 648 
o 5361 | cpuTime 5.77331 s
c last restart ## conflicts  :  156 803 
o 5311 | cpuTime 6.62206 s
c last restart ## conflicts  :  4079 820 
o 5265 | cpuTime 9.88704 s
c last restart ## conflicts  :  229 669 
o 5261 | cpuTime 12.0318 s
c last restart ## conflicts  :  45 2567 
o 5233 | cpuTime 12.0372 s
c last restart ## conflicts  :  19 1000 
o 5214 | cpuTime 19.4307 s
c last restart ## conflicts  :  478 745 
o 5212 | cpuTime 22.6643 s
c last restart ## conflicts  :  460 769 
o 5152 | cpuTime 30.8357 s
c last restart ## conflicts  :  458 755 
o 5150 | cpuTime 39.714 s
c last restart ## conflicts  :  236 754 
o 5146 | cpuTime 49.4524 s
c last restart ## conflicts  :  1696 610 
o 5145 | cpuTime 96.148 s
c last restart ## conflicts  :  119 907 
o 5144 | cpuTime 96.1652 s
s OPTIMUM FOUND
cr positiVarArr: [ | 8@1(1->8) | 20@1(2->4) | 34@1(3->2) | 49@1(4->1) | 79@1(5->15) | 85@1(6->5) | 102@1(7->6) | 128@1(8->16) | 135@1(9->7) | 153@1(10->9) | 179@1(12->3) | 204@1(13->12) | 221@1(14->13) | 238@1(15->14) | 250@1(16->10) | 267@2(1->11) | 417@2(11->1) | ]
cr the 1-th chain: [ 1->8->16->10->9->7->6->5->15->14->13->12->3->2->4->1 ] (#non-depot=14) {#cumul.=15}
cr the 2-th chain: [ 1->11->1 ] (#non-depot=1) {#cumul.=16}
c Latest Answer = 0 by 22 loops
c restarts              : 7479
c conflicts             : 1895272        (7019 /sec)
c decisions             : 4448689        (0.00 % random) (16476 /sec)
c propagations          : 1009847990     (3740136 /sec)
c conflict literals     : 258602061      (48.07 % deleted)
c Memory used           : 183.00 MB
c CPU time              : 270.003 s
